db/data/240726599307483257220059292092493312528.z3.out
-------------------
2500.311331545
